%nprocshared=32
%mem=16GB
# opt freq b3lyp/gen empiricaldispersion=gd3 pseudo=read

opt freq from SI

0 1
8        0.998850283      2.779242043      0.957094152
8        0.493438435      2.540607413     -1.260088478
6        0.637060848      4.125491043      0.494913630
6       -0.096360152      3.820677304     -0.855522000
6       -0.220849261      4.817278826      1.564208739
6        1.950417000      4.895670370      0.324177630
6       -1.604980783      3.626119457     -0.685713630
6        0.173591000      4.836303783     -1.973811630
5        1.104684304      1.915073152     -0.153871696
29       0.423615413     -0.150131435      0.270341217
15      -1.564801478     -0.720913261     -0.143259000
6        3.474963957      1.725812696     -0.390260739
6        2.231491152     -0.548342717     -0.326933109
6        2.235995043      0.817730500     -0.291003478
1       -1.097890152      4.218192978      1.825786739
1       -0.555137109      5.798841457      1.193364739
1        0.369145739      4.970792565      2.467011370
1        2.585254109      4.451241587     -0.442773739
1        2.500766370      4.872806109      1.275125630
1        1.767459413      5.946562370      0.056178370
1       -2.040467152      3.279410565     -1.627704000
1       -2.096101522      4.565687717     -0.416894522
1       -1.828858043      2.876460348      0.080808630
1       -0.367919000      4.537499783     -2.877013630
1        1.230405630      4.884526261     -2.217897000
1       -0.177252478      5.833615043     -1.678440522
1        3.520947174      2.389394696      0.491693261
1        3.388436283      2.395008804     -1.285017109
6       -2.630220478      0.283971000     -1.245934370
6       -3.896268109      0.762007370     -0.908897370
6       -2.069227109      0.621858630     -2.491473370
6       -4.607516739      1.560632739     -1.820523739
1       -4.331701109      0.524634739      0.054038630
6       -2.788824739      1.399585000     -3.396150370
1       -1.071993478      0.280036891     -2.741168370
6       -4.056913370      1.866740370     -3.067450739
1       -5.595527739      1.931482109     -1.546881739
1       -2.353655739      1.645375630     -4.368395739
1       -4.622588370      2.483887739     -3.769135739
6       -1.553025370     -2.374768630     -0.987290000
6       -0.448651000     -3.211625261     -0.756982000
6       -2.581091370     -2.796945630     -1.833852630
6       -0.395175000     -4.472562261     -1.351964000
1        0.379319000     -2.844770891     -0.160298370
6       -2.512792000     -4.067322000     -2.431422630
1       -3.415906370     -2.145861000     -2.050626630
6       -1.428915000     -4.903672630     -2.191891000
1        0.478001370     -5.098440891     -1.175825000
1       -3.310346000     -4.384828000     -3.098219630
1       -1.373478630     -5.881336630     -2.654621630
8        4.668563739      0.967445630     -0.486502370
6        3.184311370     -1.659392978     -0.429799739
6        4.231296630     -1.897733826      0.495339000
6        2.941945000     -2.684622717     -1.382824370
6        4.968720783     -3.085983304      0.463758739
1        4.461488370     -1.137570565      1.220547000
6        3.699296152     -3.848886826     -1.425807630
1        2.114490000     -2.551641348     -2.085708739
6        4.721669413     -4.069900304     -0.491604891
1        5.763765043     -3.228332043      1.194033478
1        3.486627413     -4.601554826     -2.187523630
1        5.311198304     -4.992006413     -0.511939152
6        5.784146587      1.819142413     -0.623012370
1        6.673080478      1.171013196     -0.685191000
1        5.733543435      2.437146413     -1.531749370
1        5.900677065      2.497514413      0.244658630
6       -0.876039370      0.264192000      2.953445370
1       -0.951110739      1.247152370      2.462154739
1       -0.849024370      0.450657630      4.040021370
7        0.400942630     -0.324617630      2.509507000
6        1.522856630      0.450128000      3.050751370
1        1.403825000      1.508031370      2.797457109
1        1.597932630      0.349821630      4.149660370
1        2.448168630      0.100918370      2.593118370
6        0.554258630     -1.734953630      2.868578630
1        1.508309630     -2.079795261      2.459366261
1        0.539061630     -1.896216000      3.952910261
1       -0.233110000     -2.332253630      2.411772261
6       -2.546348109     -1.025553630      1.391541000
6       -2.122983370     -0.563263000      2.664216000
6       -3.716387739     -1.791538000      1.294962370
6       -2.934669370     -0.875762370      3.768385000
6       -4.503439370     -2.068320000      2.403277370
1       -4.023268109     -2.168141630      0.325491370
6       -4.113654370     -1.608432370      3.655946370
1       -2.616393000     -0.528881370      4.761307370
1       -5.412163370     -2.652397000      2.287401370
1       -4.704067000     -1.820321370      4.536475370

-C H P B O N 0
6-31g(d)
****
-Cu 0
SDD
F 1 1.0
3.525 1.0
****

Cu
SDD
































































