%nprocshared=32
%mem=16GB
# opt freq b3lyp/gen empiricaldispersion=gd3 pseudo=read

opt freq from SI

0 1
8       -1.903797315     -1.302307028      1.223719895
8       -1.628286657     -1.491396909     -1.037618329
6       -2.460902000     -2.609175461      0.888792224
6       -1.936644448     -2.846185461     -0.586633776
6       -1.974703566     -3.641786356      1.913804776
6       -3.986271552     -2.468453776      0.998390224
6       -0.658270895     -3.678116356     -0.655497000
6       -2.990757671     -3.420197119     -1.543110000
5       -1.636267958     -0.598772370      0.039692566
29       0.050159420      0.789657881      0.255645881
15       1.952776552      0.046899119     -0.232966000
6       -1.636390762      3.548170252     -0.400249448
6       -1.995375776      0.970260042     -0.166657000
6       -1.282291881      2.121202252     -0.188202000
1       -0.888340566     -3.683469699      1.968700776
1       -2.354929685     -4.644310685      1.648988776
1       -2.359846119     -3.387830909      2.899274000
1       -4.379171986     -1.715592105      0.302101448
1       -4.233989105     -2.135132776      2.005768448
1       -4.492089119     -3.428022657      0.814336776
1       -0.287354671     -3.685818909     -1.678920000
1       -0.837398566     -4.705099580     -0.340738671
1        0.132228105     -3.245381252     -0.019996776
1       -2.543829895     -3.525338119     -2.541577000
1       -3.860660000     -2.765625224     -1.621619776
1       -3.315205790     -4.411221895     -1.208096448
1       -1.059836210      3.910951028     -1.268900895
1       -1.251891986      4.129729699      0.460490329
6        2.106035329     -1.416542329     -1.322040776
6        2.913764552     -2.523424329     -1.070664552
6        1.322725329     -1.383566776     -2.488545776
6        2.942690000     -3.590799329     -1.972583552
1        3.514059552     -2.568385105     -0.167193552
6        1.381905552     -2.437057776     -3.406759552
1        0.657880105     -0.542130000     -2.670629776
6        2.188513000     -3.544762552     -3.145960552
1        3.576716000     -4.456757105     -1.757464552
1        0.775610552     -2.400885000     -4.308111552
1        2.234109000     -4.372138552     -3.849122552
6        2.925200776      1.335057448     -1.164148000
6        2.608400000      2.684288448     -0.924485224
6        3.937681776      1.016878224     -2.078477000
6        3.317200224      3.690150448     -1.571392224
1        1.776656000      2.927645448     -0.276577000
6        4.638760000      2.025312224     -2.731657000
1        4.160409776     -0.024855776     -2.292658000
6        4.345116000      3.367487224     -2.478357000
1        3.071262224      4.732757448     -1.387348224
1        5.418165000      1.771932000     -3.442067000
1        4.888237224      4.160691000     -2.980215224
8       -3.022113986      3.871053461     -0.596177000
6       -3.483881434      0.819444014     -0.321238552
6       -4.019982762      0.286887895     -1.505431329
6       -4.354918881      1.150370119      0.724028448
6       -5.392244539      0.066151776     -1.623692552
1       -3.349715315      0.014671343     -2.313165105
6       -5.725705657      0.932258776      0.607677224
1       -3.928048776      1.573249790      1.641372224
6       -6.250867986      0.378509329     -0.556193000
1       -5.798623867     -0.347220895     -2.542579552
1       -6.381459105      1.184014329      1.437369000
1       -7.311335986      0.190427657     -0.644005224
6       -3.220992000      5.247764014     -0.820931224
1       -4.304785000      5.405707448     -0.950484000
1       -2.873912671      5.861266685      0.029574552
1       -2.701683671      5.603517461     -1.727163448
6        0.990885776     -0.369913552      2.905598000
1        0.423712776     -1.173241552      2.413534224
1        0.911315776     -0.537105329      3.996163000
7        0.312010000      0.890906448      2.540145776
6       -1.012913224      0.958498224      3.168411329
1       -1.566383224      0.054711224      2.933308881
1       -0.935430671      1.091581552      4.257822552
1       -1.548880224      1.804969448      2.731067776
6        1.085021776      2.089132448      2.874248224
1        0.521964776      2.963450448      2.536711224
1        1.269916552      2.171390448      3.962594224
1        2.041126000      2.090875448      2.355011448
6        3.011432552     -0.297578329      1.242729000
6        2.466155776     -0.456396552      2.543039000
6        4.402432552     -0.375795552      1.070098776
6        3.356493776     -0.704175000      3.594362000
6        5.266138552     -0.642594776      2.127600776
1        4.820050552     -0.218795552      0.081145776
6        4.731442776     -0.812835000      3.405625776
1        2.945416000     -0.822670000      4.597566000
1        6.336354552     -0.698451000      1.962058552
1        5.386102776     -1.011993224      4.257172552

-C H P B O N 0
6-31g(d)
****
-Cu 0
SDD
F 1 1.0
3.525 1.0
****

Cu
SDD


































































