%nprocshared=32
%mem=16GB
# opt freq b3lyp/gen empiricaldispersion=gd3 pseudo=read

opt freq from SI

0 1
 Cu                -0.91825896   -1.13867042   -0.76302328
 P                  0.66718394   -2.26350192   -1.83201762
 B                 -2.38545197   -0.09684453    0.21597450
 C                  1.23366610   -1.29334733   -3.26325985
 C                 -0.00057405   -3.85682520   -2.40341280
 C                  2.06800354   -2.56206109   -0.70868950
 O                 -3.18612531    1.06416742   -0.41086654
 O                 -2.82525253   -0.37599589    1.66930239
 C                  1.80964338    0.05028785   -2.77719987
 H                  1.99285269   -1.83711608   -3.78513810
 H                  0.40875049   -1.11253314   -3.92039166
 C                 -1.36070346   -3.97447550   -2.72051146
 C                  0.84677730   -4.96585802   -2.52627342
 C                  3.36845523   -2.65675957   -1.22273174
 C                  1.84726926   -2.69772418    0.66869533
 C                 -4.24219901    1.09923919    0.55014657
 C                 -3.53307141    0.84560434    1.88576807
 P                  0.52608313    0.98114198   -1.88261676
 H                  2.14086752    0.62054512   -3.61932457
 H                  2.63591931   -0.13365093   -2.12270357
 C                 -1.87201260   -5.20073986   -3.16650385
 H                 -2.00867267   -3.12810625   -2.62191994
 C                  0.33595280   -6.19161439   -2.97329649
 H                  1.88390035   -4.87648146   -2.27814424
 C                  4.44755877   -2.89169387   -0.36032091
 H                  3.53713457   -2.54998758   -2.27422465
 C                  2.92659314   -2.93409989    1.53109940
 H                  0.85515195   -2.62145278    1.06174063
 C                 -4.99135315    2.44403984    0.52864552
 C                 -5.25237053   -0.03008223    0.27708684
 C                 -2.54860895    1.99129782    2.17771759
 C                 -4.51622454    0.74003871    3.06532382
 C                  1.21662890    2.56462980   -1.30825905
 C                 -0.88087142    1.30098380   -2.99102705
 C                 -1.02333079   -6.30881103   -3.29413257
 H                 -2.91053880   -5.29113184   -3.40938219
 H                  0.98358185   -7.03802302   -3.07002491
 C                  4.22648564   -3.03175319    1.01648432
 H                  5.44008055   -2.96435487   -0.75324432
 H                  2.75818623   -3.04012559    2.58219498
 H                 -5.75065493    2.44199479    1.28237775
 H                 -4.30110174    3.23905977    0.71991595
 H                 -5.44188639    2.58599152   -0.43126003
 H                 -5.70754621    0.12115328   -0.67935234
 H                 -4.74443765   -0.97189318    0.28544746
 H                 -6.00655260   -0.02466947    1.03593597
 H                 -1.85244093    2.07862913    1.37000947
 H                 -3.09050749    2.90804799    2.28212843
 H                 -2.01960011    1.78406517    3.08402807
 H                 -5.04501351    1.66396263    3.17262176
 H                 -3.97292138    0.53352984    3.96388149
 H                 -5.21274838   -0.05036521    2.88004476
 C                  2.58016228    2.66292808   -0.99923384
 C                  0.38577309    3.68539929   -1.17416499
 C                 -2.17489854    1.40804467   -2.46420182
 C                 -0.67118928    1.43999968   -4.36980818
 H                 -1.41329141   -7.24444297   -3.63611814
 H                  5.05040302   -3.21352134    1.67450843
 C                  3.11256839    3.88147413   -0.55607876
 H                  3.21491974    1.80745733   -1.10112501
 C                  0.91844836    4.90408156   -0.73130585
 H                 -0.65510696    3.61067369   -1.40959028
 C                 -3.26025603    1.65167691   -3.31615979
 H                 -2.33411128    1.30368424   -1.41120577
 C                 -1.75698814    1.68306401   -5.22200402
 H                  0.31761927    1.36068027   -4.77182429
 C                  2.28165902    5.00189770   -0.42218434
 H                  4.15362801    3.95638327   -0.31983553
 H                  0.28419814    5.75981479   -0.62888810
 C                 -3.05165106    1.78848784   -4.69523290
 H                 -4.24828889    1.73337672   -2.91381693
 H                 -1.59753667    1.78808848   -6.27477835
 H                  2.68825631    5.93213670   -0.08370619
 H                 -3.88077852    1.97340044   -5.34609213

-C H P B O 0
6-31g(d)
****
-Cu 0
SDD
F 1 1.0
3.525 1.0
****

Cu
SDD






























































