%nprocshared=4
%mem=8GB
%Chk=DTGSPRBBGIDEOS-UHFFFAOYSA-N_conf_0_0.chk
# opt B3LYP/6-31+G(d,p) scf=xqc EmpiricalDispersion=GD3

O=S(CC#CCCCC#N)(C1=NC=CC=C1)=O

0 1
O -1.0009955486414635 1.8526529532693512 -0.20159139871963636
S -1.0316802329300658 0.43510512740981044 0.12144049481313585
C -0.5775951799268446 -0.5103945313063076 -1.3305945818316232
C 0.8501594112507387 -0.2838123707995561 -1.5990642237872592
C 2.0205190358658127 -0.08613215616756613 -1.784454844942911
C 3.4540052842793743 0.18210585536893062 -1.9599902014859971
C 4.2548233764679 -0.14368004387691566 -0.6989794649084157
C 3.8934298703599506 0.7561185254713082 0.48703090729931725
C 4.779881368433556 0.4910329943482537 1.6289982040103326
N 5.493680019141256 0.28216512697915336 2.5199852405376553
C -2.740391573076694 0.018012875475390617 0.39863519527465213
N -3.3205504426458816 -0.7168064040254833 -0.5859878431967339
C -4.614578133534879 -1.043940535095688 -0.3804656916419562
C -5.333896585325154 -0.678654079178414 0.7498666446431251
C -4.695221742744011 0.06945409159722724 1.7376998272546813
C -3.3641123915486966 0.43036921676313517 1.5661513225243118
O -0.29366054388804 -0.07718820793667415 1.266267589697358
H -1.1919466962715393 -0.17043288490318279 -2.1683621400072917
H -0.7688983311052168 -1.566768594801141 -1.123468013449305
H 3.606170615628837 1.2313285888056191 -2.238123148908621
H 3.83496349302554 -0.4247574550985335 -2.7897316856423147
H 4.107536606083155 -1.196154797130031 -0.4218144064971311
H 5.322231799464607 -0.029937157713472908 -0.9302641701573149
H 2.854357921741636 0.5909440805080471 0.7923583161866106
H 3.9825292217898616 1.8093014725262229 0.19620715902780475
H -5.080465227943933 -1.6273797550132905 -1.170692312422732
H -6.373086523934479 -0.9715645473951866 0.85994180333691
H -5.233288597638235 0.3679468472771082 2.6339045821691336
H -2.8339202723753587 1.0110657646413967 2.3138913923235718


--Link1--
%nprocshared=4
%mem=8GB
%Oldchk=DTGSPRBBGIDEOS-UHFFFAOYSA-N_conf_0_0.chk
%Chk=DTGSPRBBGIDEOS-UHFFFAOYSA-N_conf_0_1.chk
# freq B3LYP/6-31+G(d,p) volume NMR pop=NPA density=current Geom=AllCheck Guess=Read EmpiricalDispersion=GD3



