%nprocshared=32
%mem=16GB
# opt freq b3lyp/gen empiricaldispersion=gd3 pseudo=read

opt freq from SI

0 1
 O                  3.15644470    0.74016767    1.38340059
 O                  3.11787570    1.69978367   -0.68491141
 C                  4.53949970    0.81244467    0.95734759
 C                  4.47214170    1.86895867   -0.19549941
 C                  5.40563670    1.20258067    2.15241359
 C                  4.91943170   -0.59334733    0.46749759
 C                  4.58659270    3.31521967    0.30762159
 C                  5.44738570    1.63508767   -1.34696841
 B                  2.32080570    1.14081867    0.32206659
 Cu                 0.36552170    0.79542167    0.19557959
 P                 -1.18810440   -0.87719748    0.36891499
 C                  1.43605149    0.46414263    2.72004560
 C                 -0.60332651    1.86649463    1.71430060
 C                  0.32178249    1.23035463    2.17052960
 H                  5.05121270    2.12519867    2.61764759
 H                  6.45118370    1.34051167    1.85143459
 H                  5.37077670    0.40999867    2.90780759
 H                  4.30488470   -0.88034633   -0.39147241
 H                  4.72965270   -1.30939633    1.27426259
 H                  5.97571770   -0.66012733    0.18405059
 H                  4.31758370    3.99382167   -0.50798041
 H                  5.60305970    3.55536367    0.63967959
 H                  3.89297370    3.49113667    1.13563859
 H                  5.31611670    2.41410167   -2.10538041
 H                  5.27488470    0.66877067   -1.82637241
 H                  6.48554170    1.67297067   -0.99488741
 H                  1.65911049    0.79773063    3.74987860
 H                  2.32811649    0.63757363    2.10311160
 C                 -0.30653140   -2.35787348    1.01771499
 C                 -0.94486340   -3.40893448    1.69253199
 C                  1.08143160   -2.41795148    0.81483999
 C                 -0.20637040   -4.50049148    2.15505899
 H                 -2.01606140   -3.37036148    1.86658099
 C                  1.81382560   -3.51710748    1.26271599
 H                  1.58516760   -1.57774848    0.34442199
 C                  1.17274560   -4.55970248    1.93650299
 H                 -0.70965840   -5.30579448    2.68393699
 H                  2.88868060   -3.54620348    1.10334199
 H                  1.74463960   -5.41096548    2.29670199
 C                 -2.77313940   -0.85620348    1.30923499
 C                 -4.02832640   -0.90159348    0.68251799
 C                 -2.71321240   -0.68205948    2.70507599
 C                 -5.20017740   -0.76704848    1.43198899
 H                 -4.09660940   -1.04351048   -0.39147801
 C                 -3.88727640   -0.56522848    3.44849099
 H                 -1.74874140   -0.62354848    3.19958999
 C                 -5.13405040   -0.59980348    2.81628399
 H                 -6.16438540   -0.80109348    0.93107699
 H                 -3.82616340   -0.42980548    4.52509199
 H                 -6.04568040   -0.49458748    3.39836899
 O                  1.10665949   -0.92246937    2.71962560
 C                 -1.66846751    2.59297263    1.10310760
 C                 -1.53461751    3.96973963    0.83571160
 C                 -2.84823951    1.93144663    0.70769060
 C                 -2.54859451    4.65938063    0.17374760
 H                 -0.62500751    4.48094963    1.13594660
 C                 -3.85411451    2.62982563    0.04292660
 H                 -2.96100051    0.87599963    0.91750060
 C                 -3.70925651    3.99286063   -0.23021740
 H                 -2.42998751    5.71974163   -0.03263540
 H                 -4.75413851    2.10218063   -0.26162940
 H                 -4.49488551    4.53302163   -0.75148340
 C                  2.24114449   -1.73646037    2.97996360
 H                  1.90117749   -2.77265337    2.92632260
 H                  3.01988149   -1.56679337    2.22624660
 H                  2.65174749   -1.53734537    3.98410260
 C                 -1.72570140   -1.39113848   -1.32960401
 C                 -2.15293240   -0.40698048   -2.25501401
 C                 -1.68957340   -2.73430848   -1.72991501
 C                 -2.53855440   -0.81324148   -3.53808001
 C                 -2.07113840   -3.11811948   -3.01647701
 H                 -1.35826140   -3.49160548   -1.02700801
 C                 -2.50127640   -2.15356948   -3.92495201
 H                 -2.86596840   -0.05937648   -4.25012801
 H                 -2.03396840   -4.16618448   -3.30137301
 H                 -2.80153540   -2.43702348   -4.93008401
 C                 -2.21919040    1.07529552   -1.92357801
 H                 -2.75520440    1.58959552   -2.74174701
 H                 -2.80225740    1.24299652   -1.01052101
 N                 -1.00027249    1.77861137   -1.86324460
 C                 -1.16992749    3.21163937   -1.59201260
 H                 -1.58254549    3.74777537   -2.46602860
 H                 -1.84384749    3.34875237   -0.74587460
 H                 -0.19691349    3.63757037   -1.33339260
 C                 -0.09067049    1.57938737   -3.00089860
 H                 -0.49357249    2.02541837   -3.92860660
 H                  0.87364651    2.03086337   -2.75706160
 H                  0.06902551    0.51125237   -3.16087960

-C H P B O N 0
6-31g(d)
****
-Cu 0
SDD
F 1 1.0
3.525 1.0
****

Cu
SDD
































































