%nprocshared=32
%mem=16GB
# opt freq b3lyp/gen empiricaldispersion=gd3 pseudo=read

opt freq from SI

0 1
 O                  3.12411500   -0.24930900   -0.96838700
 O                  3.01944200    0.37602500    1.22185100
 C                  4.49933900   -0.22455600   -0.50098100
 C                  4.31476100   -0.26156200    1.05369100
 C                  5.23980400   -1.41736300   -1.09907400
 C                  5.11287000    1.08867200   -1.00638700
 C                  4.19182900   -1.68538700    1.61085300
 C                  5.35256900    0.52698700    1.84836000
 B                  2.28920700    0.24230400    0.04181100
 Cu                 0.34130100    0.73773400   -0.16872200
 P                 -0.89024900   -1.12184200    0.13585500
 C                 -2.06639097    2.98703904   -0.11170093
 C                  0.58326524    2.72369727   -0.11860940
 C                 -0.65764220    2.55229823   -0.13795615
 H                  4.72319400   -2.35506400   -0.88278100
 H                  6.26197000   -1.48027800   -0.70700500
 H                  5.29817300   -1.30733000   -2.18718500
 H                  4.58332300    1.94990600   -0.58727300
 H                  5.01521700    1.12869300   -2.09612000
 H                  6.17483900    1.16977600   -0.74980000
 H                  3.86926500   -1.63134400    2.65406100
 H                  5.14627400   -2.22191100    1.56727300
 H                  3.43617800   -2.25664600    1.06384100
 H                  5.12978000    0.45385600    2.91794500
 H                  5.34600600    1.58503500    1.57636300
 H                  6.36008800    0.12732800    1.68125700
 H                 -2.59939648    2.43855118    0.68510816
 H                 -2.54075158    2.69557385   -1.06336403
 C                 -0.03411800   -2.22952900    1.33448800
 C                  0.03719200   -3.62499600    1.22684800
 C                  0.56822100   -1.59819900    2.43585600
 C                  0.68779800   -4.37514800    2.21015600
 H                 -0.40610700   -4.13100400    0.37562600
 C                  1.19195500   -2.35117500    3.42927800
 H                  0.57182900   -0.51339200    2.49367300
 C                  1.25577000   -3.74255400    3.31736900
 H                  0.74571300   -5.45592300    2.11025800
 H                  1.64915600   -1.84824400    4.27701300
 H                  1.75661500   -4.32910200    4.08302400
 C                 -2.59170400   -0.98135700    0.83697700
 C                 -3.52860700   -0.23900300    0.09922800
 C                 -2.98153800   -1.54930500    2.05729500
 C                 -4.83447100   -0.09173500    0.55760900
 H                 -3.22808200    0.24218600   -0.82668800
 C                 -4.28956900   -1.38593400    2.52332700
 H                 -2.27031000   -2.12418900    2.64207900
 C                 -5.21886900   -0.66444700    1.77340500
 H                 -5.54054700    0.49826900   -0.01820700
 H                 -4.58064300   -1.83150800    3.47123300
 H                 -6.23519600   -0.53944600    2.13755200
 O                 -2.15072462    4.38765292    0.10116856
 C                  1.87197950    3.34931351   -0.13171963
 C                  2.56257867    3.64087436    1.06185168
 C                  2.47833789    3.68794966   -1.35951111
 C                  3.81107857    4.25878736    1.02490886
 H                  2.10090788    3.39505036    2.01314498
 C                  3.72156999    4.31139872   -1.38720559
 H                  1.96021922    3.44883679   -2.28309914
 C                  4.39658071    4.60083087   -0.19747070
 H                  4.32516934    4.48255683    1.95645958
 H                  4.17291004    4.56146594   -2.34357203
 H                  5.36935977    5.08435972   -0.22275869
 C                 -3.48755349    4.83888980    0.09960800
 H                 -3.46425416    5.91902480    0.26743744
 H                 -3.98804721    4.63737068   -0.86286127
 H                 -4.08222258    4.36637752    0.90060882
 C                  0.48762700   -0.92539600   -2.87467600
 H                  1.37542900   -1.08665500   -2.25594100
 H                  0.80147900   -1.03736100   -3.92909300
 N                  0.04696500    0.45979200   -2.62708900
 C                  1.07840800    1.39580700   -3.08555300
 H                  2.03070700    1.13292900   -2.62296500
 H                  1.18975900    1.37984200   -4.18663200
 H                  0.80438900    2.40726200   -2.77086500
 C                 -1.23425500    0.77504800   -3.25397300
 H                 -1.50435400    1.80382100   -3.00124600
 H                 -1.20305800    0.68005600   -4.35596600
 H                 -2.01641900    0.11323500   -2.87528100
 C                 -1.21656800   -2.17302300   -1.35465100
 C                 -0.56071100   -1.98871900   -2.59463500
 C                 -2.18756100   -3.18488800   -1.23903800
 C                 -0.89797500   -2.84361700   -3.65549500
 C                 -2.49726400   -4.02957500   -2.30234100
 H                 -2.71518600   -3.30724300   -0.29803600
 C                 -1.84246400   -3.85894800   -3.52079700
 H                 -0.40744100   -2.69878100   -4.61467800
 H                 -3.24789400   -4.80539600   -2.17905000
 H                 -2.07420800   -4.50029400   -4.36691300

-C H P B O N 0
6-31g(d)
****
-Cu 0
SDD
F 1 1.0
3.525 1.0
****

Cu
SDD


































































